(declare-const |tmp':72:86| Int)
(declare-const |i':69:85| Int)
(declare-const |j':70:83| Int)
(declare-const |K:81:82| Int)
(declare-const tmp Int)
(declare-const |k':71:84| Int)
(declare-const |phi_tmp:13:15:18:67| Int)
(declare-const |phi_tmp:16:19:68| Int)
(declare-const |havoc:0| Int)
(declare-const |phi_tmp:11:12:14:17:66| Int)
(assert (and (<= (- |havoc:0|) 0) (<= (+ |havoc:0| -1) 0)
               (or (not (<= (- |K:81:82|) 0))
                     (= (+ (* 2 |j':70:83|) (* |K:81:82| |K:81:82|)
                             (- |K:81:82|) (* -2 (* |K:81:82| |havoc:0|)) -2) 0))
               (or (not (<= (- |K:81:82|) 0))
                     (= (+ |k':71:84| |K:81:82| (- |havoc:0|)) 0))
               (or (not (<= (- |K:81:82|) 0))
                     (= (+ |i':69:85| (- |K:81:82|) -1) 0))
               (or (not (and (<= (- |K:81:82|) 0) (<= |K:81:82| 0)))
                     (= (+ (- tmp) |tmp':72:86|) 0))
               (or (not (<= (+ (- |K:81:82|) 1) 0)) (= (+ |tmp':72:86| -1) 0))
               (or (and (= |K:81:82| 0) (= (+ tmp (- |tmp':72:86|)) 0)
                          (= (+ (- |k':71:84|) |havoc:0|) 0)
                          (= (+ (- |j':70:83|) 1) 0)
                          (= (+ (- |i':69:85|) 1) 0))
                     (and (<= (+ (- |K:81:82|) 1) 0) (<= (+ |havoc:0| -1) 0)
                            (<= (- |havoc:0|) 0) (= (+ |tmp':72:86| -1) 0)
                            (<= (+ |i':69:85| |k':71:84| -2) 0)
                            (<= (+ |i':69:85| -1000000) 0)
                            (<= (+ (- |i':69:85|) 2) 0)
                            (<= (+ (- |i':69:85|) (- |k':71:84|) 1) 0)))
               (<= (- |K:81:82|) 0) (< (- |i':69:85|) 0)
               (< (+ |i':69:85| -1000000) 0)
               (or (and (<= (+ (- |i':69:85|) (- |k':71:84|) 1) 0)
                          (or (and (<= (+ |i':69:85| |k':71:84| -2) 0)
                                     (or (and (< |i':69:85| 0)
                                                (= (- |phi_tmp:11:12:14:17:66|) 0))
                                           (and (<= (- |i':69:85|) 0)
                                                  (= (+ (- |phi_tmp:11:12:14:17:66|)
                                                          1) 0)))
                                     (= (+ (- |phi_tmp:13:15:18:67|)
                                             |phi_tmp:11:12:14:17:66|) 0))
                                (and (< (+ (- |i':69:85|) (- |k':71:84|) 2) 0)
                                       (= (- |phi_tmp:13:15:18:67|) 0)))
                          (= (+ (- |phi_tmp:16:19:68|) |phi_tmp:13:15:18:67|) 0))
                     (and (< (+ |i':69:85| |k':71:84| -1) 0)
                            (= (- |phi_tmp:16:19:68|) 0)))
               (= |phi_tmp:16:19:68| 0)))
(check-sat)
